
Gurobi 7.5.2 (linux64) logging started Sat Jul  7 16:02:34 2018

Changed value of parameter LogFile to result/ilp/simNo_7-n_100-m_40-s_4-minVAF_0.05-cov_10000-k_2-fn_0.25-fp_0.0001-na_0.15.ILP.gurobiSolverLog
   Prev: gurobi.log  Default: 
Changed value of parameter TimeLimit to 86400.0
   Prev: 1e+100  Min: 0.0  Max: 1e+100  Default: 1e+100
Optimize a model with 639293 rows, 10765 columns and 1940420 nonzeros
Variable types: 0 continuous, 10765 integer (10765 binary)
Coefficient statistics:
  Matrix range     [4e-04, 4e+00]
  Objective range  [1e+00, 2e+01]
  Bounds range     [1e+00, 1e+00]
  RHS range        [3e-01, 2e+00]
Found heuristic solution: objective -14673.62505
Presolve removed 129683 rows and 1008 columns (presolve time = 5s) ...
Presolve removed 130246 rows and 1008 columns (presolve time = 13s) ...
Presolve removed 186546 rows and 1571 columns (presolve time = 16s) ...
Presolve removed 186546 rows and 1571 columns (presolve time = 20s) ...
Presolve removed 186546 rows and 1571 columns
Presolve time: 20.20s
Presolved: 452747 rows, 9194 columns, 1360705 nonzeros
Variable types: 0 continuous, 9194 integer (9194 binary)
Presolved: 9194 rows, 461941 columns, 1369899 nonzeros

Presolve removed 9194 rows and 461941 columns

Root simplex log...

Iteration    Objective       Primal Inf.    Dual Inf.      Time
       0    4.1317630e+01   0.000000e+00   7.583600e+04     25s
    6845   -1.4057443e+02   0.000000e+00   4.894708e+04     25s
   27232   -3.1593971e+02   0.000000e+00   1.774094e+06     30s
   41882   -3.5196455e+02   0.000000e+00   1.566283e+06     35s
   58834   -3.9161907e+02   0.000000e+00   1.291050e+04     40s
   74267   -4.2757622e+02   0.000000e+00   0.000000e+00     45s
   74267   -4.2757622e+02   0.000000e+00   0.000000e+00     47s

Root relaxation: objective -4.275762e+02, 74267 iterations, 24.76 seconds
Total elapsed time = 120.63s
Total elapsed time = 142.79s

    Nodes    |    Current Node    |     Objective Bounds      |     Work
 Expl Unexpl |  Obj  Depth IntInf | Incumbent    BestBd   Gap | It/Node Time

     0     0 -427.57622    0 1923 -14673.625 -427.57622  97.1%     -  176s
H    0     0                    -1033.268277 -427.57622  58.6%     -  181s
H    0     0                    -535.6618037 -427.57622  20.2%     -  183s
H    0     0                    -504.2425549 -427.57622  15.2%     -  185s
     0     0 -430.58874    0 1672 -504.24255 -430.58874  14.6%     -  203s
     0     0 -432.85791    0 1710 -504.24255 -432.85791  14.2%     -  232s
     0     0 -433.24857    0 1709 -504.24255 -433.24857  14.1%     -  245s
     0     0 -433.93015    0 1695 -504.24255 -433.93015  13.9%     -  261s
H    0     0                    -478.6416855 -433.93015  9.34%     -  268s
     0     0 -434.01799    0 1961 -478.64169 -434.01799  9.32%     -  274s
     0     0 -434.04651    0 1974 -478.64169 -434.04651  9.32%     -  279s
     0     0 -434.04651    0 1974 -478.64169 -434.04651  9.32%     -  281s
     0     0 -435.67982    0 1716 -478.64169 -435.67982  8.98%     -  446s
H    0     0                    -476.3143338 -435.67982  8.53%     -  458s
     0     0 -436.30148    0 2015 -476.31433 -436.30148  8.40%     -  518s
     0     0 -436.33288    0 2013 -476.31433 -436.33288  8.39%     -  526s
     0     0 -436.33288    0 2014 -476.31433 -436.33288  8.39%     -  530s
     0     0 -437.40502    0 2553 -476.31433 -437.40502  8.17%     -  702s
     0     0 -437.40502    0 2527 -476.31433 -437.40502  8.17%     -  717s
     0     0 -439.17499    0 2056 -476.31433 -439.17499  7.80%     - 1229s
     0     0 -439.32368    0 2060 -476.31433 -439.32368  7.77%     - 1258s
     0     0 -439.32368    0 2064 -476.31433 -439.32368  7.77%     - 1262s
     0     0 -439.97663    0 2056 -476.31433 -439.97663  7.63%     - 3283s
     0     0 -440.33058    0 2056 -476.31433 -440.33058  7.55%     - 3652s
     0     0 -440.33058    0 2056 -476.31433 -440.33058  7.55%     - 3657s
     0     0 -441.86221    0 2129 -476.31433 -441.86221  7.23%     - 6175s
H    0     0                    -472.8233061 -441.86221  6.55%     - 6198s
     0     0 -441.95690    0 2128 -472.82331 -441.95690  6.53%     - 6333s
     0     0 -441.95834    0 2129 -472.82331 -441.95834  6.53%     - 6344s
     0     0 -442.67180    0 2118 -472.82331 -442.67180  6.38%     - 9082s
     0     0 -442.92219    0 1925 -472.82331 -442.92219  6.32%     - 9517s
     0     0 -442.96783    0 2015 -472.82331 -442.96783  6.31%     - 9633s
     0     0 -442.96869    0 2018 -472.82331 -442.96869  6.31%     - 9641s
     0     0 -443.23224    0 2013 -472.82331 -443.23224  6.26%     - 9793s
     0     0 -443.29903    0 2577 -472.82331 -443.29903  6.24%     - 9922s
     0     0 -443.29903    0 2585 -472.82331 -443.29903  6.24%     - 9934s
     0     0 -444.52996    0 2598 -472.82331 -444.52996  5.98%     - 10456s
     0     0 -444.53683    0 2601 -472.82331 -444.53683  5.98%     - 10476s
     0     0 -444.59142    0 2149 -472.82331 -444.59142  5.97%     - 10489s
     0     0 -444.59225    0 2606 -472.82331 -444.59225  5.97%     - 10496s
     0     0 -445.86891    0 1758 -472.82331 -445.86891  5.70%     - 11456s
H    0     0                    -471.6596302 -445.86891  5.47%     - 11478s
     0     0 -446.27684    0 2023 -471.65963 -446.27684  5.38%     - 11813s
     0     0 -446.43656    0 2618 -471.65963 -446.43656  5.35%     - 11862s
     0     0 -446.43656    0 2613 -471.65963 -446.43656  5.35%     - 11869s
     0     0 -446.91089    0 2608 -471.65963 -446.91089  5.25%     - 12018s
     0     0 -447.06493    0 2028 -471.65963 -447.06493  5.21%     - 12157s
     0     0 -447.07397    0 2035 -471.65963 -447.07397  5.21%     - 12167s
     0     0 -447.11987    0 2033 -471.65963 -447.11987  5.20%     - 12206s
     0     0 -447.19148    0 2029 -471.65963 -447.19148  5.19%     - 12249s
     0     0 -447.20938    0 2032 -471.65963 -447.20938  5.18%     - 12262s
     0     0 -447.25219    0 2033 -471.65963 -447.25219  5.17%     - 12272s
     0     0 -447.25219    0 2033 -471.65963 -447.25219  5.17%     - 12276s
     0     0 -448.56352    0 2015 -471.65963 -448.56352  4.90%     - 12699s
     0     0 -448.83096    0 2020 -471.65963 -448.83096  4.84%     - 12829s
     0     0 -448.85059    0 2020 -471.65963 -448.85059  4.84%     - 12853s
     0     0 -448.85745    0 2021 -471.65963 -448.85745  4.83%     - 12876s
     0     0 -448.85745    0 2021 -471.65963 -448.85745  4.83%     - 12881s
     0     0 -449.26422    0 2009 -471.65963 -449.26422  4.75%     - 13121s
     0     0 -449.62737    0 2664 -471.65963 -449.62737  4.67%     - 13432s
     0     0 -449.63179    0 2642 -471.65963 -449.63179  4.67%     - 13444s
     0     0 -449.63562    0 2645 -471.65963 -449.63562  4.67%     - 13482s
     0     0 -449.63562    0 2636 -471.65963 -449.63562  4.67%     - 13486s
     0     0 -450.85376    0 1794 -471.65963 -450.85376  4.41%     - 13933s
     0     0 -451.09372    0 2645 -471.65963 -451.09372  4.36%     - 14391s
     0     0 -451.12441    0 2638 -471.65963 -451.12441  4.35%     - 14407s
     0     0 -451.12481    0 2647 -471.65963 -451.12481  4.35%     - 14413s
     0     0 -452.53204    0 2460 -471.65963 -452.53204  4.06%     - 14907s
     0     0 -452.72224    0 2539 -471.65963 -452.72224  4.02%     - 15183s
     0     0 -452.78155    0 1406 -471.65963 -452.78155  4.00%     - 15291s
     0     0 -452.78186    0 2454 -471.65963 -452.78186  4.00%     - 15306s
     0     0 -452.84913    0 2466 -471.65963 -452.84913  3.99%     - 15479s
     0     0 -452.95681    0 2477 -471.65963 -452.95681  3.97%     - 15621s
     0     0 -452.96732    0 2609 -471.65963 -452.96732  3.96%     - 15640s
     0     0 -452.96732    0 2609 -471.65963 -452.96732  3.96%     - 15646s
     0     0 -453.45012    0 1416 -471.65963 -453.45012  3.86%     - 15888s
     0     0 -453.67640    0 1416 -471.65963 -453.67640  3.81%     - 16403s
     0     0 -453.77788    0 1674 -471.65963 -453.77788  3.79%     - 16651s
     0     0 -453.79882    0 1681 -471.65963 -453.79882  3.79%     - 16717s
     0     0 -453.79987    0 1687 -471.65963 -453.79987  3.79%     - 16731s
     0     0 -454.29345    0 1681 -471.65963 -454.29345  3.68%     - 18578s
     0     0 -454.42675    0 1678 -471.65963 -454.42675  3.65%     - 18848s
     0     0 -454.51683    0 1376 -471.65963 -454.51683  3.63%     - 19102s
     0     0 -454.56499    0 1663 -471.65963 -454.56499  3.62%     - 19315s
     0     0 -454.58711    0 1670 -471.65963 -454.58711  3.62%     - 19393s
     0     0 -454.58711    0 1671 -471.65963 -454.58711  3.62%     - 19398s
     0     0 -455.41235    0 2701 -471.65963 -455.41235  3.44%     - 25073s
     0     0 -455.60310    0 2229 -471.65963 -455.60310  3.40%     - 25214s
     0     0 -455.62621    0 1996 -471.65963 -455.62621  3.40%     - 25256s
     0     0 -455.62621    0 1998 -471.65963 -455.62621  3.40%     - 25266s
     0     0 -455.88827    0 2001 -471.65963 -455.88827  3.34%     - 25404s
     0     0 -455.91713    0 1996 -471.65963 -455.91713  3.34%     - 25475s
     0     0 -455.92528    0 1999 -471.65963 -455.92528  3.34%     - 25503s
     0     0 -455.92815    0 2008 -471.65963 -455.92815  3.34%     - 25532s
     0     0 -456.02617    0 2126 -471.65963 -456.02617  3.31%     - 25641s
     0     0 -456.25658    0 2128 -471.65963 -456.25658  3.27%     - 25974s
     0     0 -456.33328    0 2129 -471.65963 -456.33328  3.25%     - 26023s
     0     0 -456.33560    0 2128 -471.65963 -456.33560  3.25%     - 26054s
     0     0 -456.59696    0 2114 -471.65963 -456.59696  3.19%     - 26367s
     0     0 -456.63733    0 2005 -471.65963 -456.63733  3.18%     - 26476s
     0     0 -456.70437    0 2118 -471.65963 -456.70437  3.17%     - 26693s
     0     0 -456.72819    0 2117 -471.65963 -456.72819  3.17%     - 26734s
     0     0 -456.73452    0 2118 -471.65963 -456.73452  3.16%     - 26750s
     0     0 -456.73750    0 2113 -471.65963 -456.73750  3.16%     - 26781s
     0     0 -456.73819    0 2123 -471.65963 -456.73819  3.16%     - 26796s
     0     0 -456.78584    0 2005 -471.65963 -456.78584  3.15%     - 26878s
     0     0 -456.87895    0 2109 -471.65963 -456.87895  3.13%     - 27146s
     0     0 -456.91784    0 2004 -471.65963 -456.91784  3.13%     - 27225s
     0     0 -456.93455    0 2004 -471.65963 -456.93455  3.12%     - 27262s
     0     0 -456.93717    0 2005 -471.65963 -456.93717  3.12%     - 27281s
     0     0 -457.35787    0 2006 -471.65963 -457.35787  3.03%     - 31331s
     0     0 -457.38881    0 2012 -471.65963 -457.38881  3.03%     - 31388s
     0     0 -457.42797    0 2014 -471.65963 -457.42797  3.02%     - 31413s
     0     0 -457.43139    0 2008 -471.65963 -457.43139  3.02%     - 31438s
     0     0 -457.43139    0 2018 -471.65963 -457.43139  3.02%     - 31443s
     0     0 -457.44679    0 2021 -471.65963 -457.44679  3.01%     - 31481s
     0     0 -457.44700    0 2023 -471.65963 -457.44700  3.01%     - 31523s
     0     0 -457.67595    0 2020 -471.65963 -457.67595  2.96%     - 31658s
     0     0 -457.78730    0 2028 -471.65963 -457.78730  2.94%     - 31821s
     0     0 -457.83500    0 2029 -471.65963 -457.83500  2.93%     - 31903s
     0     0 -457.83529    0 2028 -471.65963 -457.83529  2.93%     - 31916s
     0     0 -458.39493    0 2122 -471.65963 -458.39493  2.81%     - 34125s
     0     0 -458.40275    0 2126 -471.65963 -458.40275  2.81%     - 34188s
     0     0 -458.42729    0 2130 -471.65963 -458.42729  2.81%     - 34204s
     0     0 -458.42729    0 2133 -471.65963 -458.42729  2.81%     - 34211s
     0     0 -458.55684    0 2117 -471.65963 -458.55684  2.78%     - 34259s
     0     0 -458.63369    0 2126 -471.65963 -458.63369  2.76%     - 34729s
     0     0 -458.64998    0 2128 -471.65963 -458.64998  2.76%     - 34779s
     0     0 -458.64998    0 2128 -471.65963 -458.64998  2.76%     - 34785s
     0     0 -458.65783    0 2125 -471.65963 -458.65783  2.76%     - 34811s
     0     0 -458.76515    0 2124 -471.65963 -458.76515  2.73%     - 34887s
     0     0 -458.81701    0 2121 -471.65963 -458.81701  2.72%     - 34956s
     0     0 -458.81701    0 2124 -471.65963 -458.81701  2.72%     - 34966s
     0     0 -459.02904    0 2122 -471.65963 -459.02904  2.68%     - 35462s
     0     0 -459.11616    0 2119 -471.65963 -459.11616  2.66%     - 35832s
     0     0 -459.20816    0 2117 -471.65963 -459.20816  2.64%     - 36090s
     0     0 -459.21337    0 2118 -471.65963 -459.21337  2.64%     - 36139s
     0     0 -459.21337    0 2121 -471.65963 -459.21337  2.64%     - 36144s
     0     0 -459.31149    0 2123 -471.65963 -459.31149  2.62%     - 36401s
     0     0 -459.48888    0 2111 -471.65963 -459.48888  2.58%     - 36966s
     0     0 -459.53753    0 2130 -471.65963 -459.53753  2.57%     - 37066s
     0     0 -459.55460    0 2122 -471.65963 -459.55460  2.57%     - 37234s
     0     0 -459.56264    0 2116 -471.65963 -459.56264  2.56%     - 37361s
     0     0 -459.56465    0 2115 -471.65963 -459.56465  2.56%     - 37396s
     0     0 -459.83833    0 1924 -471.65963 -459.83833  2.51%     - 40747s
     0     0 -459.92335    0 2120 -471.65963 -459.92335  2.49%     - 41864s
     0     0 -459.92335    0 2121 -471.65963 -459.92335  2.49%     - 41875s
     0     0 -459.94212    0 2010 -471.65963 -459.94212  2.48%     - 42026s
     0     0 -460.04003    0 2108 -471.65963 -460.04003  2.46%     - 42484s
     0     0 -460.09825    0 2121 -471.65963 -460.09825  2.45%     - 42747s
     0     0 -460.10572    0 2121 -471.65963 -460.10572  2.45%     - 42836s
     0     0 -460.10644    0 2125 -471.65963 -460.10644  2.45%     - 42854s
     0     0 -460.12830    0 2107 -471.65963 -460.12830  2.44%     - 43051s
     0     0 -460.26271    0 1999 -471.65963 -460.26271  2.42%     - 43694s
     0     0 -460.26276    0 2004 -471.65963 -460.26276  2.42%     - 43706s
     0     0 -460.32506    0 2109 -471.65963 -460.32506  2.40%     - 43953s
     0     0 -460.41142    0 2108 -471.65963 -460.41142  2.38%     - 44319s
     0     0 -460.48359    0 2124 -471.65963 -460.48359  2.37%     - 45244s
     0     0 -460.48976    0 2125 -471.65963 -460.48976  2.37%     - 45303s
     0     0 -460.49567    0 2123 -471.65963 -460.49567  2.37%     - 45327s
     0     0 -460.49600    0 2115 -471.65963 -460.49600  2.37%     - 45346s
     0     0 -460.56964    0 2118 -471.65963 -460.56964  2.35%     - 46634s
     0     0 -460.62003    0 2113 -471.65963 -460.62003  2.34%     - 46782s
     0     0 -460.65837    0 2115 -471.65963 -460.65837  2.33%     - 47304s
     0     0 -460.66296    0 2118 -471.65963 -460.66296  2.33%     - 47392s
     0     0 -460.66367    0 2011 -471.65963 -460.66367  2.33%     - 47411s
     0     0 -460.77204    0 2114 -471.65963 -460.77204  2.31%     - 48744s
     0     0 -460.79481    0 2108 -471.65963 -460.79481  2.30%     - 48895s
     0     0 -460.79481    0 2125 -471.65963 -460.79481  2.30%     - 48914s
     0     0 -460.79481    0 2124 -471.65963 -460.79481  2.30%     - 48932s
     0     0 -460.79481    0 1989 -471.65963 -460.79481  2.30%     - 50115s
     0     2 -460.79609    0 1982 -471.65963 -460.79609  2.30%     - 50691s
     1     3 -462.82872    1 1067 -471.65963 -460.79609  2.30% 16219 50876s
     2     4 -462.93206    2  770 -471.65963 -460.79609  2.30%  8264 50880s
     3     5 -463.51390    3  681 -471.65963 -460.79609  2.30%  5636 50885s
     4     6 -465.84125    3  741 -471.65963 -460.79609  2.30%  5216 50926s
     5     7 -467.00493    4  728 -471.65963 -460.79609  2.30%  4329 50932s
     7     7     cutoff    5      -471.65963 -460.79609  2.30%  3704 50967s
     8     8 -467.58676    6  710 -471.65963 -460.79609  2.30%  3243 50983s
     9     9 -468.16860    7  709 -471.65963 -460.79609  2.30%  2918 50994s
    10     8     cutoff    7      -471.65963 -460.79609  2.30%  2671 50997s
    11     9 -469.33228    8  723 -471.65963 -460.79609  2.30%  2576 51010s
    12    10 -470.49595    8  650 -471.65963 -460.79609  2.30%  2501 51021s
    15     9 -470.49595    9  710 -471.65963 -460.79609  2.30%  2165 51040s
    17     7     cutoff   10      -471.65963 -460.79609  2.30%  1952 51045s
    19     7 -466.61138    1  446 -471.65963 -462.83443  1.87%  3709 51712s
    20     6     cutoff    2      -471.65963 -462.83443  1.87%  4199 51926s
    21     7 -469.84231    2  632 -471.65963 -462.83443  1.87%  4492 52079s
    22     6     cutoff    3      -471.65963 -462.83443  1.87%  4525 52128s
    23     5     cutoff    3      -471.65963 -462.83443  1.87%  4542 52179s
    24     4     cutoff    2      -471.65963 -463.51390  1.73%  5236 52487s
    25     3     cutoff    4      -471.65963 -463.51491  1.73%  5332 52592s
    26     4 -464.11075    4  667 -471.65963 -464.11075  1.60%  5159 52599s
    27     5 -469.68138    5  802 -471.65963 -464.11075  1.60%  6904 53909s
    28     6 -467.70313    5  772 -471.65963 -465.84125  1.23%  9034 55549s
    29     7 -470.04839    6  728 -471.65963 -465.84125  1.23% 10883 57243s
    30     8 -470.71414    7  677 -471.65963 -465.84125  1.23% 10574 57259s
    31     9 -471.07779    8  684 -471.65963 -465.84125  1.23% 10282 57272s
    32     8     cutoff    9      -471.65963 -465.84125  1.23% 10016 57304s
    33     7     cutoff    9      -471.65963 -465.84125  1.23%  9722 57306s
    34     6     cutoff    8      -471.65963 -465.84125  1.23% 13390 61912s
    35     5     cutoff    7      -471.65963 -465.84125  1.23% 19598 70022s
    36     6 -469.20298    4  798 -471.65963 -467.58676  0.86% 19509 70361s
    37     5     cutoff    5      -471.65963 -467.58676  0.86% 19022 70381s
    38     6 -471.36871    5  781 -471.65963 -467.58676  0.86% 18990 70720s
    39     5     cutoff    6      -471.65963 -467.58676  0.86% 18529 70731s
    41     3     cutoff    6      -471.65963 -467.70313  0.84% 18474 71433s
    42     4 -469.33228    6  734 -471.65963 -469.33228  0.49% 21028 75950s
    43     5 -469.84947    7  659 -471.65963 -469.33228  0.49% 21135 76503s
    44     6 -470.93233    8  667 -471.65963 -469.33228  0.49% 21044 76819s
    45     5     cutoff    9      -471.65963 -469.33228  0.49% 20835 77054s
    46     4     cutoff    9      -471.65963 -469.33228  0.49% 21355 78019s
    47     3     cutoff    8      -471.65963 -469.33228  0.49% 23948 82251s

Cutting planes:
  Gomory: 2
  MIR: 3
  Zero half: 432

Explored 48 nodes (2848443 simplex iterations) in 86400.19 seconds
Thread count was 1 (of 80 available processors)

Solution count 8: -471.66 -472.823 -476.314 ... -14673.6

Time limit reached
Best objective -4.716596302314e+02, best bound -4.693322784674e+02, gap 0.4934%
